p cnf 12 50 
6 11 8 0
-7 -3 -12 0
-3 -1 -8 0
-3 1 6 0
-11 -1 5 0
3 8 5 0
-12 1 10 0
-12 11 10 0
4 -8 9 0
-6 9 -2 0
-1 -11 2 0
9 7 4 0
-8 7 -2 0
1 12 -5 0
-11 3 8 0
-7 -12 2 0
11 2 -8 0
4 3 -10 0
11 12 9 0
-12 -8 -11 0
-4 -11 6 0
-12 -5 6 0
-10 4 -9 0
6 -2 -7 0
-8 -11 -9 0
-2 4 12 0
11 -10 7 0
-1 11 6 0
11 -4 12 0
2 -3 12 0
1 4 -3 0
4 3 -1 0
8 12 -2 0
9 -1 -10 0
-5 -1 -8 0
4 -10 -5 0
10 -8 6 0
9 7 -12 0
10 -8 5 0
1 9 12 0
-3 -7 -1 0
-1 9 -6 0
-10 -4 8 0
-10 3 1 0
12 3 4 0
12 9 -7 0
4 -10 2 0
6 9 -5 0
11 5 -9 0
6 9 12 0
